Normalized Data/p10_30_normalized_split0.vrp
NAME:p10_30_NORMALIZED_split
BEST_KNOWN: 0
COMMENT: 0
DIMENSION: 765
CAPACITY: 100
EDGE_WEIGHT_FORMAT: FUNCTION
EDGE_WEIGHT_TYPE: EXACT_2D
NODE_COORD_SECTION
1 0.00000 0.00000
2 4 43
3 4 43
4 4 43
5 4 43
6 50 -30
7 50 -30
8 50 -30
9 50 -30
10 -6 49
11 -6 49
12 -6 49
13 2 -49
14 2 -49
15 2 -49
16 2 -49
17 2 -49
18 -9 25
19 -9 25
20 -9 25
21 -9 25
22 -36 -42
23 -36 -42
24 -36 -42
25 -36 -42
26 -9 -20
27 -9 -20
28 -9 -20
29 -9 -20
30 -9 -20
31 5 33
32 5 33
33 5 33
34 32 4
35 32 4
36 32 4
37 32 4
38 32 4
39 32 4
40 34 34
41 34 34
42 34 34
43 34 34
44 34 34
45 34 34
46 20 40
47 20 40
48 20 40
49 20 40
50 19 -30
51 19 -30
52 19 -30
53 -33 15
54 -33 15
55 -33 15
56 -33 15
57 -33 15
58 -33 15
59 -22 -44
60 -22 -44
61 -22 -44
62 -22 -44
63 14 45
64 14 45
65 14 45
66 14 45
67 14 45
68 -29 -23
69 37 21
70 37 21
71 37 21
72 37 21
73 37 21
74 -32 13
75 -32 13
76 -32 13
77 -32 13
78 -32 13
79 -32 13
80 48 50
81 48 50
82 48 50
83 48 50
84 48 50
85 -50 9
86 -50 9
87 -50 9
88 -50 49
89 -50 49
90 -50 49
91 -50 49
92 -50 49
93 -50 49
94 -2 -33
95 -2 -33
96 -2 -33
97 -50 -24
98 -50 -24
99 -20 32
100 -20 32
101 2 -8
102 2 -8
103 37 -26
104 37 -26
105 6 -29
106 6 -29
107 6 -29
108 -28 -45
109 -28 -45
110 -28 -45
111 -17 -21
112 -17 -21
113 -17 -21
114 -48 -34
115 -48 -34
116 -48 -34
117 -48 -34
118 41 25
119 41 25
120 -20 -17
121 -20 -17
122 -20 -17
123 -20 -17
124 -20 -17
125 -36 -42
126 -36 -42
127 -36 -42
128 -36 -42
129 -36 -42
130 43 12
131 43 12
132 43 12
133 -3 -35
134 -3 -35
135 -3 -35
136 -3 -35
137 -3 -35
138 43 33
139 43 33
140 43 33
141 43 33
142 43 33
143 26 -44
144 26 -44
145 10 25
146 10 25
147 10 25
148 10 25
149 0 13
150 0 13
151 0 13
152 0 13
153 18 34
154 18 34
155 50 -13
156 50 -13
157 50 -13
158 -16 15
159 -16 15
160 -16 15
161 -16 15
162 -38 -33
163 -38 -33
164 -38 -33
165 -38 -33
166 -38 -33
167 -30 19
168 -30 19
169 -30 19
170 -30 19
171 22 9
172 22 9
173 41 23
174 41 23
175 41 23
176 -18 37
177 -18 37
178 1 -25
179 1 -25
180 33 -46
181 33 -46
182 33 -46
183 33 -46
184 33 -46
185 33 -46
186 33 -46
187 -18 -36
188 -18 -36
189 -18 -36
190 16 -11
191 16 -11
192 16 -11
193 16 -11
194 16 -11
195 16 -11
196 15 -37
197 15 -37
198 15 -37
199 15 -37
200 12 -2
201 12 -2
202 12 -2
203 12 -2
204 -14 -21
205 -14 -21
206 -14 -21
207 12 34
208 12 34
209 39 8
210 39 8
211 39 8
212 39 8
213 -45 -17
214 -11 -12
215 -11 -12
216 -11 -12
217 -11 -12
218 20 -3
219 20 -3
220 35 25
221 35 25
222 35 25
223 11 29
224 11 29
225 11 29
226 11 29
227 11 29
228 11 29
229 38 -47
230 38 -47
231 38 -47
232 38 -47
233 -20 15
234 -20 15
235 41 33
236 41 33
237 41 33
238 41 33
239 41 33
240 21 -42
241 21 -42
242 21 -42
243 21 -42
244 -10 33
245 -10 33
246 0 -26
247 0 -26
248 0 -26
249 0 -26
250 33 8
251 33 8
252 33 8
253 33 8
254 33 8
255 25 12
256 25 12
257 25 12
258 25 12
259 25 12
260 -14 40
261 -14 40
262 -14 40
263 -14 40
264 -15 31
265 -15 31
266 -15 31
267 -15 31
268 -15 31
269 -7 -15
270 -7 -15
271 -7 -15
272 -2 -22
273 -2 -22
274 -2 -22
275 -2 -22
276 -2 -22
277 3 47
278 3 47
279 3 47
280 3 47
281 19 -37
282 19 -37
283 19 -37
284 19 -37
285 -29 -12
286 -29 -12
287 -29 -12
288 -29 -12
289 -49 18
290 -49 18
291 -49 18
292 -49 18
293 -40 30
294 -40 30
295 -40 30
296 -40 30
297 26 -25
298 26 -25
299 26 -25
300 26 -25
301 26 -25
302 -39 7
303 -39 7
304 -39 7
305 -39 7
306 12 44
307 12 44
308 -3 -38
309 -3 -38
310 -3 -38
311 -3 -38
312 -3 -38
313 -3 -38
314 -30 -30
315 -30 -30
316 -30 -30
317 -30 -30
318 -48 6
319 -48 6
320 -48 6
321 -27 24
322 -27 24
323 -27 24
324 -25 -20
325 -25 -20
326 -25 -20
327 35 -11
328 35 -11
329 35 -11
330 3 -23
331 3 -23
332 3 -23
333 3 -23
334 3 -23
335 3 -23
336 14 27
337 14 27
338 14 27
339 14 27
340 -10 31
341 -10 31
342 -10 31
343 -10 31
344 -10 45
345 -10 45
346 -10 45
347 -10 45
348 -10 45
349 -27 -37
350 -27 -37
351 -27 -37
352 -27 -37
353 -27 -37
354 -26 -4
355 -26 -4
356 -26 -4
357 -26 -4
358 -33 -25
359 -33 -25
360 -33 -25
361 -33 -25
362 -33 -25
363 -33 -25
364 36 9
365 36 9
366 36 9
367 -27 -49
368 -27 -49
369 -27 -49
370 -27 -49
371 -14 38
372 -14 38
373 -14 38
374 -16 48
375 -16 48
376 10 44
377 10 44
378 10 44
379 -36 32
380 -36 32
381 25 -10
382 25 -10
383 25 -10
384 25 -10
385 25 -10
386 24 9
387 24 9
388 24 9
389 41 -3
390 41 -3
391 41 -3
392 41 -3
393 -5 -30
394 -5 -30
395 -5 -30
396 33 39
397 33 39
398 33 39
399 33 39
400 50 -7
401 50 -7
402 50 -7
403 50 -7
404 50 -7
405 50 -7
406 48 48
407 15 -16
408 15 -16
409 15 -16
410 -43 -42
411 -43 -42
412 4 -5
413 4 -5
414 4 -5
415 4 -5
416 4 -5
417 4 -5
418 4 -5
419 -40 21
420 -40 21
421 -40 21
422 -7 5
423 36 -15
424 36 -15
425 36 -15
426 36 -15
427 36 -15
428 36 -15
429 -7 -1
430 -7 -1
431 -7 -1
432 -7 -1
433 -7 -1
434 -42 -9
435 -42 -9
436 -42 -9
437 -42 -9
438 -42 -9
439 -17 -33
440 -17 -33
441 -17 -33
442 -17 -33
443 -17 -33
444 -46 15
445 -46 15
446 -46 15
447 -46 15
448 -46 15
449 24 49
450 24 49
451 24 49
452 24 49
453 20 28
454 20 28
455 20 28
456 36 13
457 36 13
458 36 13
459 36 13
460 -11 -47
461 -11 -47
462 -11 -47
463 -11 -47
464 12 -47
465 -27 43
466 -27 43
467 -24 -1
468 -24 -1
469 -24 -1
470 -26 -47
471 -26 -47
472 -26 -47
473 -27 19
474 -27 19
475 -27 19
476 38 -3
477 38 -3
478 38 -3
479 -35 -5
480 -35 -5
481 -35 -5
482 -35 -5
483 -35 -5
484 -4 43
485 -4 43
486 -4 43
487 -8 -11
488 -8 -11
489 48 22
490 48 22
491 48 22
492 19 -15
493 19 -15
494 19 -15
495 -48 -32
496 -48 -32
497 -27 41
498 -27 41
499 -27 41
500 -27 41
501 -27 41
502 -27 41
503 -37 36
504 -37 36
505 -37 36
506 -37 36
507 -37 36
508 -37 36
509 14 41
510 14 41
511 14 41
512 14 41
513 14 41
514 -42 -48
515 -42 -48
516 24 -39
517 24 -39
518 24 -39
519 24 -39
520 24 -39
521 -48 42
522 -48 42
523 -48 42
524 15 -19
525 -47 -36
526 -47 -36
527 -47 -36
528 -47 -36
529 48 -4
530 48 -4
531 48 -4
532 48 -4
533 28 41
534 28 41
535 28 41
536 28 41
537 -22 2
538 -22 2
539 -22 2
540 -22 2
541 -22 2
542 -30 24
543 -30 24
544 -30 24
545 -30 24
546 -30 24
547 25 -3
548 25 -3
549 25 -3
550 42 24
551 42 24
552 42 24
553 28 27
554 28 27
555 28 27
556 28 27
557 28 27
558 10 -50
559 10 -50
560 10 -50
561 10 -50
562 10 -50
563 14 -43
564 14 -43
565 -29 -43
566 -29 -43
567 -29 -43
568 -4 33
569 -4 33
570 -4 33
571 -4 33
572 -4 33
573 -4 33
574 -25 20
575 -25 20
576 -25 20
577 -25 20
578 -25 20
579 -25 20
580 48 24
581 48 24
582 48 24
583 -49 -21
584 -49 -21
585 -49 -21
586 -49 -21
587 -49 -21
588 -3 8
589 -3 8
590 -3 8
591 -3 8
592 -3 8
593 -28 5
594 -28 5
595 -28 5
596 -28 5
597 -28 5
598 47 -15
599 47 -15
600 47 -15
601 -31 -31
602 -31 -31
603 -31 -31
604 -31 -31
605 -31 -31
606 -31 -31
607 -31 -31
608 14 -41
609 14 -41
610 14 -41
611 42 -26
612 42 -26
613 42 -26
614 -27 47
615 -27 47
616 -27 47
617 -27 47
618 -42 31
619 -42 31
620 16 -23
621 16 -23
622 16 -23
623 16 -23
624 2 3
625 2 3
626 2 3
627 2 3
628 -44 28
629 -44 28
630 -44 28
631 -44 28
632 -44 28
633 -44 28
634 -31 -45
635 -31 -45
636 -20 -50
637 -20 -50
638 -20 -50
639 -20 -50
640 37 -44
641 37 -44
642 37 -44
643 37 -44
644 -1 2
645 -1 2
646 -32 -44
647 -32 -44
648 -32 -44
649 -32 -44
650 -32 -44
651 -32 -44
652 -5 -49
653 -5 -49
654 -5 -49
655 -5 -49
656 16 17
657 16 17
658 16 17
659 16 17
660 -27 -37
661 -27 -37
662 -27 -37
663 -27 -37
664 -7 -8
665 -7 -8
666 -7 -8
667 -7 -8
668 -7 -8
669 -2 23
670 -2 23
671 -2 23
672 -2 23
673 -2 23
674 26 -50
675 26 -50
676 26 -50
677 26 -50
678 13 13
679 13 13
680 13 13
681 13 13
682 13 13
683 -37 34
684 -37 34
685 -37 34
686 44 28
687 44 28
688 16 45
689 16 45
690 7 6
691 7 6
692 7 6
693 7 6
694 7 6
695 14 -12
696 14 -12
697 14 -12
698 14 -12
699 14 -12
700 14 -12
701 -43 -12
702 -43 -12
703 -43 -12
704 9 -42
705 9 -42
706 9 -42
707 -9 37
708 -9 37
709 -9 37
710 -8 40
711 -8 40
712 -8 40
713 38 34
714 38 34
715 38 34
716 38 34
717 -11 -16
718 -11 -16
719 -11 -16
720 -11 -16
721 -11 -16
722 -11 -16
723 -11 -16
724 6 -47
725 6 -47
726 6 -47
727 24 -12
728 24 -12
729 24 -12
730 24 -12
731 -18 37
732 -18 37
733 -18 37
734 -18 37
735 37 7
736 37 7
737 37 7
738 37 7
739 37 7
740 -37 -18
741 -37 -18
742 -37 -18
743 -37 -18
744 -37 -18
745 -25 -32
746 -25 -32
747 -25 -32
748 -25 -32
749 -25 -32
750 -25 -32
751 -25 -32
752 -26 9
753 -26 9
754 -26 9
755 -26 9
756 -26 9
757 -26 9
758 -35 9
759 -35 9
760 -9 -6
761 -9 -6
762 -9 -6
763 8 -7
764 8 -7
765 8 -7
DEMAND_SECTION
1 0
2 20
3 20
4 1
5 1
6 20
7 20
8 5
9 1
10 20
11 10
12 5
13 20
14 1
15 1
16 1
17 1
18 20
19 1
20 1
21 1
22 20
23 10
24 1
25 1
26 10
27 5
28 1
29 1
30 1
31 20
32 5
33 1
34 20
35 5
36 1
37 1
38 1
39 1
40 20
41 10
42 1
43 1
44 1
45 1
46 20
47 5
48 1
49 1
50 20
51 20
52 1
53 20
54 20
55 5
56 1
57 1
58 1
59 10
60 1
61 1
62 1
63 20
64 20
65 5
66 1
67 1
68 20
69 10
70 5
71 1
72 1
73 1
74 20
75 10
76 5
77 1
78 1
79 1
80 20
81 5
82 1
83 1
84 1
85 20
86 20
87 1
88 20
89 20
90 1
91 1
92 1
93 1
94 20
95 10
96 5
97 10
98 5
99 10
100 5
101 20
102 20
103 20
104 10
105 20
106 20
107 1
108 20
109 20
110 10
111 20
112 20
113 1
114 20
115 20
116 5
117 1
118 20
119 20
120 20
121 20
122 5
123 1
124 1
125 20
126 5
127 1
128 1
129 1
130 20
131 20
132 10
133 20
134 5
135 1
136 1
137 1
138 20
139 1
140 1
141 1
142 1
143 20
144 1
145 20
146 20
147 5
148 1
149 20
150 20
151 5
152 1
153 20
154 20
155 20
156 5
157 1
158 20
159 20
160 5
161 1
162 20
163 20
164 1
165 1
166 1
167 20
168 10
169 1
170 1
171 10
172 5
173 20
174 5
175 1
176 20
177 10
178 10
179 5
180 20
181 20
182 5
183 1
184 1
185 1
186 1
187 10
188 5
189 1
190 20
191 10
192 1
193 1
194 1
195 1
196 20
197 20
198 5
199 1
200 20
201 5
202 1
203 1
204 10
205 1
206 1
207 20
208 5
209 20
210 20
211 1
212 1
213 20
214 10
215 1
216 1
217 1
218 10
219 5
220 20
221 10
222 1
223 20
224 5
225 1
226 1
227 1
228 1
229 20
230 20
231 1
232 1
233 20
234 5
235 20
236 20
237 5
238 1
239 1
240 20
241 10
242 5
243 1
244 20
245 10
246 20
247 20
248 5
249 1
250 20
251 20
252 5
253 1
254 1
255 20
256 20
257 5
258 1
259 1
260 10
261 5
262 1
263 1
264 10
265 5
266 1
267 1
268 1
269 20
270 1
271 1
272 10
273 5
274 1
275 1
276 1
277 20
278 20
279 5
280 1
281 20
282 10
283 5
284 1
285 20
286 10
287 5
288 1
289 10
290 5
291 1
292 1
293 20
294 10
295 1
296 1
297 20
298 5
299 1
300 1
301 1
302 20
303 20
304 5
305 1
306 10
307 5
308 20
309 10
310 1
311 1
312 1
313 1
314 10
315 5
316 1
317 1
318 20
319 1
320 1
321 20
322 20
323 1
324 20
325 20
326 1
327 20
328 10
329 1
330 10
331 5
332 1
333 1
334 1
335 1
336 10
337 1
338 1
339 1
340 20
341 20
342 5
343 1
344 20
345 1
346 1
347 1
348 1
349 20
350 10
351 1
352 1
353 1
354 20
355 20
356 1
357 1
358 10
359 5
360 1
361 1
362 1
363 1
364 20
365 5
366 1
367 20
368 10
369 5
370 1
371 20
372 10
373 1
374 10
375 5
376 20
377 10
378 1
379 10
380 5
381 20
382 10
383 1
384 1
385 1
386 20
387 20
388 10
389 20
390 20
391 5
392 1
393 20
394 20
395 10
396 20
397 20
398 5
399 1
400 20
401 20
402 5
403 1
404 1
405 1
406 20
407 20
408 10
409 1
410 20
411 5
412 20
413 10
414 5
415 1
416 1
417 1
418 1
419 20
420 20
421 5
422 20
423 20
424 5
425 1
426 1
427 1
428 1
429 20
430 5
431 1
432 1
433 1
434 20
435 20
436 5
437 1
438 1
439 10
440 5
441 1
442 1
443 1
444 10
445 5
446 1
447 1
448 1
449 20
450 1
451 1
452 1
453 10
454 5
455 1
456 20
457 1
458 1
459 1
460 20
461 5
462 1
463 1
464 20
465 20
466 5
467 20
468 5
469 1
470 20
471 5
472 1
473 20
474 20
475 1
476 20
477 10
478 5
479 20
480 20
481 5
482 1
483 1
484 10
485 5
486 1
487 20
488 20
489 20
490 10
491 5
492 20
493 10
494 5
495 20
496 1
497 20
498 10
499 1
500 1
501 1
502 1
503 20
504 20
505 5
506 1
507 1
508 1
509 20
510 10
511 1
512 1
513 1
514 20
515 10
516 20
517 1
518 1
519 1
520 1
521 20
522 10
523 1
524 20
525 20
526 5
527 1
528 1
529 10
530 5
531 1
532 1
533 10
534 1
535 1
536 1
537 20
538 10
539 5
540 1
541 1
542 20
543 5
544 1
545 1
546 1
547 20
548 1
549 1
550 20
551 20
552 5
553 20
554 20
555 5
556 1
557 1
558 20
559 20
560 5
561 1
562 1
563 20
564 1
565 20
566 10
567 1
568 20
569 5
570 1
571 1
572 1
573 1
574 20
575 20
576 1
577 1
578 1
579 1
580 20
581 10
582 1
583 10
584 5
585 1
586 1
587 1
588 20
589 10
590 1
591 1
592 1
593 20
594 5
595 1
596 1
597 1
598 20
599 5
600 1
601 20
602 20
603 5
604 1
605 1
606 1
607 1
608 20
609 10
610 1
611 20
612 10
613 5
614 10
615 1
616 1
617 1
618 20
619 1
620 20
621 10
622 5
623 1
624 20
625 20
626 1
627 1
628 20
629 20
630 5
631 1
632 1
633 1
634 10
635 5
636 20
637 5
638 1
639 1
640 20
641 20
642 1
643 1
644 20
645 10
646 20
647 20
648 5
649 1
650 1
651 1
652 20
653 20
654 1
655 1
656 20
657 1
658 1
659 1
660 20
661 10
662 5
663 1
664 10
665 5
666 1
667 1
668 1
669 20
670 20
671 1
672 1
673 1
674 10
675 5
676 1
677 1
678 10
679 1
680 1
681 1
682 1
683 10
684 1
685 1
686 20
687 1
688 20
689 20
690 20
691 1
692 1
693 1
694 1
695 20
696 5
697 1
698 1
699 1
700 1
701 20
702 10
703 1
704 20
705 10
706 1
707 10
708 5
709 1
710 20
711 5
712 1
713 20
714 20
715 5
716 1
717 20
718 20
719 5
720 1
721 1
722 1
723 1
724 20
725 20
726 5
727 10
728 1
729 1
730 1
731 20
732 20
733 5
734 1
735 20
736 1
737 1
738 1
739 1
740 20
741 10
742 5
743 1
744 1
745 20
746 20
747 5
748 1
749 1
750 1
751 1
752 20
753 10
754 1
755 1
756 1
757 1
758 20
759 20
760 20
761 1
762 1
763 10
764 1
765 1
DEPOT_SECTION
1
-1
EOF