Normalized Data/p10_30_normalized_split0.sol
764 -17 20 18 19 339 340 342 341 243 244 -23 127 124 21 514 513 409 410 -24 125 128 22 126 647 646 645 648 650 649 633 634 186 440 442 439 -25 744 748 750 605 603 602 606 604 601 600 314 316 313 315 -29 28 26 27 393 394 133 132 94 93 95 -32 31 30 206 152 153 335 336 337 338 625 -40 44 43 41 39 42 715 713 712 714 234 -48 47 46 45 687 688 511 509 510 512 508 -50 51 49 296 299 300 298 297 406 408 407 -57 52 53 56 54 55 74 76 75 73 78 77 754 755 753 752 756 -67 362 357 358 162 164 165 161 163 739 742 -71 72 70 68 69 219 220 221 552 555 554 556 553 679 681 678 680 -98 99 176 732 731 730 733 175 264 265 591 589 590 -100 101 487 486 663 665 666 667 664 -102 179 180 675 674 676 673 142 143 -103 611 612 610 7 5 6 8 426 427 424 383 384 382 -106 105 104 619 622 621 620 523 -117 118 550 549 172 -123 122 121 120 119 111 112 110 204 203 205 -134 135 136 16 13 12 15 14 654 653 652 651 459 460 462 461 -144 145 147 223 222 224 225 227 655 657 677 -146 3 2 1 4 276 277 279 278 151 150 -149 148 668 669 421 -157 158 232 751 592 -160 159 574 575 576 573 578 577 473 472 474 233 -167 169 168 166 542 543 541 322 321 320 -170 249 253 251 37 36 38 33 35 34 546 217 218 -171 457 456 458 455 130 129 131 209 -174 173 551 686 685 580 579 581 490 488 489 -188 187 59 61 58 60 108 109 107 565 564 566 -194 189 192 191 193 190 491 492 493 696 697 694 695 699 698 763 764 -197 195 196 198 607 608 609 563 562 -200 201 735 736 738 734 737 210 211 208 365 364 363 252 250 -226 207 62 66 65 64 63 306 305 376 375 377 -236 235 237 238 139 137 138 140 141 405 83 79 81 80 82 658 -255 258 256 257 254 387 385 386 -263 267 266 373 374 613 614 616 615 464 465 501 500 497 498 496 499 -270 269 268 718 717 716 214 213 215 216 759 -275 273 274 271 272 247 248 245 246 178 177 332 334 331 333 329 330 -280 282 283 281 240 242 239 241 516 515 518 -292 295 293 617 618 631 628 629 627 630 632 -318 319 317 84 86 85 291 289 288 290 445 446 444 447 443 -324 325 323 287 286 284 285 430 428 -356 434 433 437 436 435 480 478 479 482 481 467 -361 359 360 527 526 524 525 113 114 115 116 494 495 761 760 -371 372 370 260 261 262 259 710 709 711 567 571 569 572 671 672 670 -379 378 684 683 682 503 504 294 419 420 418 -381 380 328 327 326 423 422 425 726 729 727 728 -388 389 391 390 528 529 530 531 475 476 477 547 548 -392 310 311 308 307 309 312 723 725 724 -401 399 403 402 404 400 154 156 155 597 599 598 -414 413 415 412 411 416 417 762 202 199 691 690 689 693 692 -429 540 301 303 302 304 758 757 595 593 596 594 -432 431 355 353 354 468 466 538 537 536 539 -438 441 471 469 470 368 367 366 369 636 635 638 637 -463 559 561 557 558 560 704 705 703 -507 505 502 506 91 89 92 87 88 90 521 522 520 544 545 -517 519 182 183 185 181 184 228 231 229 230 639 640 642 641 -568 570 484 483 485 9 11 10 345 346 344 347 343 708 706 707 -623 624 588 587 643 644 -626 453 452 454 451 448 450 449 534 535 533 532 395 397 398 396 656 -702 700 701 212 584 586 582 583 585 97 96 741 743 740 -720 722 721 719 659 348 349 662 660 661 352 351 350 749 747 745 746 0 





OBJ=
5670.872
BEST_KNOWN=
0.000